1624.96
0 189 10 108 90 159 62 148 182 7 46 194 106 153 0
0 96 104 99 93 85 91 193 100 42 37 98 151 92 59 0
0 111 116 129 68 150 80 177 109 12 138 154 28 0
0 83 199 84 173 16 141 44 119 191 61 5 118 60 0
0 2 115 178 144 172 142 57 145 41 22 133 74 171 73 110 0
0 82 48 168 47 49 143 36 124 8 114 45 17 6 0
0 26 149 195 179 55 186 56 75 197 72 198 21 40 137 0
0 166 18 174 125 113 86 140 38 14 192 0
0 53 105 180 94 183 147 89 112 156 0
0 139 187 39 23 67 170 25 165 130 54 24 29 0
0 162 70 126 63 11 175 107 19 123 88 31 190 127 0
0 33 81 120 9 103 136 164 34 78 169 79 185 0
0 132 176 1 50 102 157 3 158 77 196 76 184 0
0 58 152 15 43 87 97 95 117 13 146 167 101 69 27 0
0 122 30 160 131 128 20 188 161 71 35 135 51 0
0 52 64 181 32 66 65 121 163 134 155 4 0
